\ Model Ore Mixing Problem
\ LP format - for model browsing. Use MPS format to capture full model detail.
Minimize
  35.11235955056179 a_max_00 + 94.51795841209831 a_max_01
   + 5882.352941176473 a_max_10 + 833.3333333333334 a_max_11
   + 2380.952380952381 a_max_20 + 3125 a_max_21
   + 11111.11111111111 a_max_30 + 4166.666666666667 a_max_31
   + 2272.727272727273 a_max_40 + 2173.913043478261 a_max_41
   + 10000 a_max_50 + 970.8737864077672 a_max_51
   + 60.53268765133173 a_min_00 + 29.05287623474724 a_min_01
   + 751.8796992481202 a_min_10 + 3333.333333333333 a_min_11
   + 12500 a_min_20 + 5555.555555555556 a_min_21
   + 2439.024390243902 a_min_30 + 3846.153846153846 a_min_31
   + 1785.714285714286 a_min_40 + 1851.851851851852 a_min_41
   + 714.2857142857141 a_min_50 + 2127.659574468084 a_min_51
   + 0.0605326876513317 b_min_00 + 0.0945179584120983 b_min_01
   + 5.882352941176473 b_min_10 + 3.333333333333333 b_min_11
   + 12.5 b_min_20 + 5.555555555555555 b_min_21
   + 11.11111111111111 b_min_30 + 4.166666666666667 b_min_31
   + 2.272727272727273 b_min_40 + 2.173913043478261 b_min_41 + 10 b_min_50
   + 2.127659574468084 b_min_51 + 0.0605326876513317 b_max_0
   + 0.0945179584120983 b_max_0 + 5.882352941176473 b_max_1
   + 3.333333333333333 b_max_1 + 12.5 b_max_2 + 5.555555555555555 b_max_2
   + 11.11111111111111 b_max_3 + 4.166666666666667 b_max_3
   + 2.272727272727273 b_max_4 + 2.173913043478261 b_max_4 + 10 b_max_5
   + 2.127659574468084 b_max_5
Subject To
 demand_constr_0: x_00 + x_10 + x_20 + x_30 + x_40 + x_50 = 1320
 capacity_constr_00: x_00 <= 240
 capacity_constr_10: x_10 <= 497
 capacity_constr_20: x_20 <= 616
 capacity_constr_30: x_30 <= 638
 capacity_constr_40: x_40 <= 484
 capacity_constr_50: x_50 <= 458
 min_quality_constr_00: 21.52 x_00 - 20.48 x_10 + 29.06 x_20 - 18.91 x_30
   - 0.04 x_40 + 11 x_50 + 1320 a_min_00 >= -0
 max_quality_constr_00: - 23.48 x_00 - 65.48 x_10 - 15.94 x_20 - 63.91 x_30
   - 45.04 x_40 - 34 x_50 - 1320 a_max_00 <= -0
 goal_quality_constr_00: 5 x_00 - 37 x_10 + 12.54 x_20 - 35.43 x_30
   - 16.56 x_40 - 5.52 x_50 + b_min_00 - b_max_0 = -0
 min_quality_constr_10: 1.33 x_00 + 1.38 x_10 + 1.56 x_20 + 1.07 x_30
   + 1.26 x_40 + 0.3 x_50 + 1320 a_min_10 >= -0
 max_quality_constr_10: - 0.17 x_00 - 0.12 x_10 + 0.06 x_20 - 0.43 x_30
   - 0.24 x_40 - 1.2 x_50 - 1320 a_max_10 <= -0
 goal_quality_constr_10: 0.05 x_10 + 0.23 x_20 - 0.26 x_30 - 0.07 x_40
   - 1.03 x_50 + b_min_10 - b_max_1 = -0
 min_quality_constr_20: 3.54 x_00 + 1.9 x_10 + 2.32 x_20 + 1.35 x_30
   + 1.47 x_40 + 5 x_50 + 1320 a_min_20 >= -0
 max_quality_constr_20: 3.04 x_00 + 1.4 x_10 + 1.82 x_20 + 0.85 x_30
   + 0.97 x_40 + 4.5 x_50 - 1320 a_max_20 <= -0
 goal_quality_constr_20: 3.46 x_00 + 1.82 x_10 + 2.24 x_20 + 1.27 x_30
   + 1.39 x_40 + 4.92 x_50 + b_min_20 - b_max_2 = -0
 min_quality_constr_30: 1.43 x_00 + 0.49 x_10 + 4.53 x_20 + 3.83 x_30
   + 1.54 x_40 + 1.72 x_50 + 1320 a_min_30 >= -0
 max_quality_constr_30: 0.93 x_00 - 0.01 x_10 + 4.03 x_20 + 3.33 x_30
   + 1.04 x_40 + 1.22 x_50 - 1320 a_max_30 <= -0
 goal_quality_constr_30: 1.02 x_00 + 0.08 x_10 + 4.12 x_20 + 3.42 x_30
   + 1.13 x_40 + 1.31 x_50 + b_min_30 - b_max_3 = -0
 min_quality_constr_40: 0.03 x_00 + 1.26 x_10 + 0.06 x_20 + 0.19 x_30
   + 0.89 x_40 + 1.15 x_50 + 1320 a_min_40 >= -0
 max_quality_constr_40: - 0.97 x_00 + 0.26 x_10 - 0.94 x_20 - 0.81 x_30
   - 0.11 x_40 + 0.15 x_50 - 1320 a_max_40 <= -0
 goal_quality_constr_40: - 0.53 x_00 + 0.7 x_10 - 0.5 x_20 - 0.37 x_30
   + 0.33 x_40 + 0.59 x_50 + b_min_40 - b_max_4 = -0
 min_quality_constr_50: 3.39 x_00 + 0.31 x_10 + 0.08 x_20 + 3.34 x_30
   - 1.19 x_40 + 2.36 x_50 + 1320 a_min_50 >= -0
 max_quality_constr_50: 1.89 x_00 - 1.19 x_10 - 1.42 x_20 + 1.84 x_30
   - 2.69 x_40 + 0.86 x_50 - 1320 a_max_50 <= -0
 goal_quality_constr_50: 1.99 x_00 - 1.09 x_10 - 1.32 x_20 + 1.94 x_30
   - 2.59 x_40 + 0.96 x_50 + b_min_50 - b_max_5 = -0
 demand_constr_1: x_01 + x_11 + x_21 + x_31 + x_41 + x_51 = 1636
 capacity_constr_01: x_01 <= 240
 capacity_constr_11: x_11 <= 497
 capacity_constr_21: x_21 <= 616
 capacity_constr_31: x_31 <= 638
 capacity_constr_41: x_41 <= 484
 capacity_constr_51: x_51 <= 458
 min_quality_constr_01: 21.52 x_01 - 20.48 x_11 + 29.06 x_21 - 18.91 x_31
   - 0.04 x_41 + 11 x_51 + 1636 a_min_01 >= -0
 max_quality_constr_01: - 23.48 x_01 - 65.48 x_11 - 15.94 x_21 - 63.91 x_31
   - 45.04 x_41 - 34 x_51 - 1636 a_max_01 <= -0
 goal_quality_constr_01: - 12.9 x_01 - 54.9 x_11 - 5.36 x_21 - 53.33 x_31
   - 34.46 x_41 - 23.42 x_51 + b_min_01 - b_max_0 = -0
 min_quality_constr_11: 1.33 x_01 + 1.38 x_11 + 1.56 x_21 + 1.07 x_31
   + 1.26 x_41 + 0.3 x_51 + 1636 a_min_11 >= -0
 max_quality_constr_11: - 0.17 x_01 - 0.12 x_11 + 0.06 x_21 - 0.43 x_31
   - 0.24 x_41 - 1.2 x_51 - 1636 a_max_11 <= -0
 goal_quality_constr_11: 1.03 x_01 + 1.08 x_11 + 1.26 x_21 + 0.77 x_31
   + 0.96 x_41 + b_min_11 - b_max_1 = -0
 min_quality_constr_21: 3.54 x_01 + 1.9 x_11 + 2.32 x_21 + 1.35 x_31
   + 1.47 x_41 + 5 x_51 + 1636 a_min_21 >= -0
 max_quality_constr_21: 3.04 x_01 + 1.4 x_11 + 1.82 x_21 + 0.85 x_31
   + 0.97 x_41 + 4.5 x_51 - 1636 a_max_21 <= -0
 goal_quality_constr_21: 3.36 x_01 + 1.72 x_11 + 2.14 x_21 + 1.17 x_31
   + 1.29 x_41 + 4.82 x_51 + b_min_21 - b_max_2 = -0
 min_quality_constr_31: 1.43 x_01 + 0.49 x_11 + 4.53 x_21 + 3.83 x_31
   + 1.54 x_41 + 1.72 x_51 + 1636 a_min_31 >= -0
 max_quality_constr_31: 0.93 x_01 - 0.01 x_11 + 4.03 x_21 + 3.33 x_31
   + 1.04 x_41 + 1.22 x_51 - 1636 a_max_31 <= -0
 goal_quality_constr_31: 1.17 x_01 + 0.23 x_11 + 4.27 x_21 + 3.57 x_31
   + 1.28 x_41 + 1.46 x_51 + b_min_31 - b_max_3 = -0
 min_quality_constr_41: 0.03 x_01 + 1.26 x_11 + 0.06 x_21 + 0.19 x_31
   + 0.89 x_41 + 1.15 x_51 + 1636 a_min_41 >= -0
 max_quality_constr_41: - 0.97 x_01 + 0.26 x_11 - 0.94 x_21 - 0.81 x_31
   - 0.11 x_41 + 0.15 x_51 - 1636 a_max_41 <= -0
 goal_quality_constr_41: - 0.51 x_01 + 0.72 x_11 - 0.48 x_21 - 0.35 x_31
   + 0.35 x_41 + 0.61 x_51 + b_min_41 - b_max_4 = -0
 min_quality_constr_51: 3.39 x_01 + 0.31 x_11 + 0.08 x_21 + 3.34 x_31
   - 1.19 x_41 + 2.36 x_51 + 1636 a_min_51 >= -0
 max_quality_constr_51: 1.89 x_01 - 1.19 x_11 - 1.42 x_21 + 1.84 x_31
   - 2.69 x_41 + 0.86 x_51 - 1636 a_max_51 <= -0
 goal_quality_constr_51: 2.92 x_01 - 0.16 x_11 - 0.39 x_21 + 2.87 x_31
   - 1.66 x_41 + 1.89 x_51 + b_min_51 - b_max_5 = -0
Bounds
End
